p idrup
i 8 -2 0
i -7 5 0
i 2 9 0
i -12 3 13 0
i -13 1 0
i -4 -8 14 0
i 12 10 0
i -1 -11 0
i -6 -5 0
i -14 6 0
i 15 -10 0
i -16 -9 -3 0
i 10 7 0
i -15 -10 0
q 4 16 11 0
l 10 -4 -16 13 0
s UNSATISFIABLE
u 16 4 11 0
